\ This file has been generated by DOcplex
\ ENCODING=ISO-8859-1
\Problem name: random_problem.lp

Minimize
 obj: - 84.321019711291 x0 - 42.160509855645 x1 - 21.080254927823 x2
      - 21.430640736494 x3 - 10.715320368247 x4 - 5.357660184123 x5 + [
      43.594991881654 x0^2 + 43.594991881654 x0*x1 + 21.797495940827 x0*x2
      + 17.106507721452 x0*x3 + 8.553253860726 x0*x4 + 4.276626930363 x0*x5
      + 10.898747970413 x1^2 + 10.898747970413 x1*x2 + 8.553253860726 x1*x3
      + 4.276626930363 x1*x4 + 2.138313465181 x1*x5 + 2.724686992603 x2^2
      + 4.276626930363 x2*x3 + 2.138313465181 x2*x4 + 1.069156732591 x2*x5
      + 45.569809301916 x3^2 + 45.569809301916 x3*x4 + 22.784904650958 x3*x5
      + 11.392452325479 x4^2 + 11.392452325479 x4*x5 + 2.848113081370 x5^2 ]/2
Subject To
 c0: 4 x0 + 2 x1 + x2 + 4 x3 + 2 x4 + x5 = 7

Bounds
 0 <= x0 <= 1
 0 <= x1 <= 1
 0 <= x2 <= 1
 0 <= x3 <= 1
 0 <= x4 <= 1
 0 <= x5 <= 1

Binaries
 x0 x1 x2 x3 x4 x5
End
